\* 猫缶問題にゃ *\
Minimize
1缶あたりの材料の総コスト: 0.008 牛肉の割合 + 0.013 鶏肉の割合
Subject To
タンパク質の必要量: 0.2 牛肉の割合 + 0.1 鶏肉の割合 >= 8
合計100%: 牛肉の割合 + 鶏肉の割合 = 100
塩分の必要量: 0.005 牛肉の割合 + 0.002 鶏肉の割合 <= 0.4
脂肪の必要量: 0.1 牛肉の割合 + 0.08 鶏肉の割合 >= 6
食物繊維の必要量: 0.005 牛肉の割合 + 0.001 鶏肉の割合 <= 2
End
